(set-logic QF_LRA)
(declare-fun X0 () Real )
(declare-fun Y0 () Real )
(declare-fun X1 () Real )
(declare-fun Y1 () Real )
(declare-fun X2 () Real )
(declare-fun Y2 () Real )
(declare-fun X3 () Real )
(declare-fun Y3 () Real )
(declare-fun X4 () Real )
(declare-fun Y4 () Real )
(declare-fun X5 () Real )
(declare-fun Y5 () Real )
(declare-fun X6 () Real )
(declare-fun Y6 () Real )
(declare-fun X7 () Real )
(declare-fun Y7 () Real )
(declare-fun X8 () Real )
(declare-fun Y8 () Real )
(declare-fun X9 () Real )
(declare-fun Y9 () Real )
(declare-fun X10 () Real )
(declare-fun Y10 () Real )
(declare-fun X11 () Real )
(declare-fun Y11 () Real )
(declare-fun Z () Real )
(assert ( and  
( or ( <= ( + X0 81 ) X1 )  ( <= ( + X1 70 ) X0 )  ( <= ( + Y0 28 ) Y1 )  ( <= ( + Y1 57 ) Y0 )  )
( or ( <= ( + X0 81 ) X2 )  ( <= ( + X2 74 ) X0 )  ( <= ( + Y0 28 ) Y2 )  ( <= ( + Y2 39 ) Y0 )  )
( or ( <= ( + X0 81 ) X3 )  ( <= ( + X3 88 ) X0 )  ( <= ( + Y0 28 ) Y3 )  ( <= ( + Y3 64 ) Y0 )  )
( or ( <= ( + X0 81 ) X4 )  ( <= ( + X4 80 ) X0 )  ( <= ( + Y0 28 ) Y4 )  ( <= ( + Y4 8 ) Y0 )  )
( or ( <= ( + X0 81 ) X5 )  ( <= ( + X5 58 ) X0 )  ( <= ( + Y0 28 ) Y5 )  ( <= ( + Y5 60 ) Y0 )  )
( or ( <= ( + X0 81 ) X6 )  ( <= ( + X6 84 ) X0 )  ( <= ( + Y0 28 ) Y6 )  ( <= ( + Y6 87 ) Y0 )  )
( or ( <= ( + X0 81 ) X7 )  ( <= ( + X7 12 ) X0 )  ( <= ( + Y0 28 ) Y7 )  ( <= ( + Y7 5 ) Y0 )  )
( or ( <= ( + X0 81 ) X8 )  ( <= ( + X8 30 ) X0 )  ( <= ( + Y0 28 ) Y8 )  ( <= ( + Y8 86 ) Y0 )  )
( or ( <= ( + X0 81 ) X9 )  ( <= ( + X9 59 ) X0 )  ( <= ( + Y0 28 ) Y9 )  ( <= ( + Y9 79 ) Y0 )  )
( or ( <= ( + X0 81 ) X10 )  ( <= ( + X10 35 ) X0 )  ( <= ( + Y0 28 ) Y10 )  ( <= ( + Y10 41 ) Y0 )  )
( or ( <= ( + X0 81 ) X11 )  ( <= ( + X11 12 ) X0 )  ( <= ( + Y0 28 ) Y11 )  ( <= ( + Y11 65 ) Y0 )  )
( or ( <= ( + X1 70 ) X2 )  ( <= ( + X2 74 ) X1 )  ( <= ( + Y1 57 ) Y2 )  ( <= ( + Y2 39 ) Y1 )  )
( or ( <= ( + X1 70 ) X3 )  ( <= ( + X3 88 ) X1 )  ( <= ( + Y1 57 ) Y3 )  ( <= ( + Y3 64 ) Y1 )  )
( or ( <= ( + X1 70 ) X4 )  ( <= ( + X4 80 ) X1 )  ( <= ( + Y1 57 ) Y4 )  ( <= ( + Y4 8 ) Y1 )  )
( or ( <= ( + X1 70 ) X5 )  ( <= ( + X5 58 ) X1 )  ( <= ( + Y1 57 ) Y5 )  ( <= ( + Y5 60 ) Y1 )  )
( or ( <= ( + X1 70 ) X6 )  ( <= ( + X6 84 ) X1 )  ( <= ( + Y1 57 ) Y6 )  ( <= ( + Y6 87 ) Y1 )  )
( or ( <= ( + X1 70 ) X7 )  ( <= ( + X7 12 ) X1 )  ( <= ( + Y1 57 ) Y7 )  ( <= ( + Y7 5 ) Y1 )  )
( or ( <= ( + X1 70 ) X8 )  ( <= ( + X8 30 ) X1 )  ( <= ( + Y1 57 ) Y8 )  ( <= ( + Y8 86 ) Y1 )  )
( or ( <= ( + X1 70 ) X9 )  ( <= ( + X9 59 ) X1 )  ( <= ( + Y1 57 ) Y9 )  ( <= ( + Y9 79 ) Y1 )  )
( or ( <= ( + X1 70 ) X10 )  ( <= ( + X10 35 ) X1 )  ( <= ( + Y1 57 ) Y10 )  ( <= ( + Y10 41 ) Y1 )  )
( or ( <= ( + X1 70 ) X11 )  ( <= ( + X11 12 ) X1 )  ( <= ( + Y1 57 ) Y11 )  ( <= ( + Y11 65 ) Y1 )  )
( or ( <= ( + X2 74 ) X3 )  ( <= ( + X3 88 ) X2 )  ( <= ( + Y2 39 ) Y3 )  ( <= ( + Y3 64 ) Y2 )  )
( or ( <= ( + X2 74 ) X4 )  ( <= ( + X4 80 ) X2 )  ( <= ( + Y2 39 ) Y4 )  ( <= ( + Y4 8 ) Y2 )  )
( or ( <= ( + X2 74 ) X5 )  ( <= ( + X5 58 ) X2 )  ( <= ( + Y2 39 ) Y5 )  ( <= ( + Y5 60 ) Y2 )  )
( or ( <= ( + X2 74 ) X6 )  ( <= ( + X6 84 ) X2 )  ( <= ( + Y2 39 ) Y6 )  ( <= ( + Y6 87 ) Y2 )  )
( or ( <= ( + X2 74 ) X7 )  ( <= ( + X7 12 ) X2 )  ( <= ( + Y2 39 ) Y7 )  ( <= ( + Y7 5 ) Y2 )  )
( or ( <= ( + X2 74 ) X8 )  ( <= ( + X8 30 ) X2 )  ( <= ( + Y2 39 ) Y8 )  ( <= ( + Y8 86 ) Y2 )  )
( or ( <= ( + X2 74 ) X9 )  ( <= ( + X9 59 ) X2 )  ( <= ( + Y2 39 ) Y9 )  ( <= ( + Y9 79 ) Y2 )  )
( or ( <= ( + X2 74 ) X10 )  ( <= ( + X10 35 ) X2 )  ( <= ( + Y2 39 ) Y10 )  ( <= ( + Y10 41 ) Y2 )  )
( or ( <= ( + X2 74 ) X11 )  ( <= ( + X11 12 ) X2 )  ( <= ( + Y2 39 ) Y11 )  ( <= ( + Y11 65 ) Y2 )  )
( or ( <= ( + X3 88 ) X4 )  ( <= ( + X4 80 ) X3 )  ( <= ( + Y3 64 ) Y4 )  ( <= ( + Y4 8 ) Y3 )  )
( or ( <= ( + X3 88 ) X5 )  ( <= ( + X5 58 ) X3 )  ( <= ( + Y3 64 ) Y5 )  ( <= ( + Y5 60 ) Y3 )  )
( or ( <= ( + X3 88 ) X6 )  ( <= ( + X6 84 ) X3 )  ( <= ( + Y3 64 ) Y6 )  ( <= ( + Y6 87 ) Y3 )  )
( or ( <= ( + X3 88 ) X7 )  ( <= ( + X7 12 ) X3 )  ( <= ( + Y3 64 ) Y7 )  ( <= ( + Y7 5 ) Y3 )  )
( or ( <= ( + X3 88 ) X8 )  ( <= ( + X8 30 ) X3 )  ( <= ( + Y3 64 ) Y8 )  ( <= ( + Y8 86 ) Y3 )  )
( or ( <= ( + X3 88 ) X9 )  ( <= ( + X9 59 ) X3 )  ( <= ( + Y3 64 ) Y9 )  ( <= ( + Y9 79 ) Y3 )  )
( or ( <= ( + X3 88 ) X10 )  ( <= ( + X10 35 ) X3 )  ( <= ( + Y3 64 ) Y10 )  ( <= ( + Y10 41 ) Y3 )  )
( or ( <= ( + X3 88 ) X11 )  ( <= ( + X11 12 ) X3 )  ( <= ( + Y3 64 ) Y11 )  ( <= ( + Y11 65 ) Y3 )  )
( or ( <= ( + X4 80 ) X5 )  ( <= ( + X5 58 ) X4 )  ( <= ( + Y4 8 ) Y5 )  ( <= ( + Y5 60 ) Y4 )  )
( or ( <= ( + X4 80 ) X6 )  ( <= ( + X6 84 ) X4 )  ( <= ( + Y4 8 ) Y6 )  ( <= ( + Y6 87 ) Y4 )  )
( or ( <= ( + X4 80 ) X7 )  ( <= ( + X7 12 ) X4 )  ( <= ( + Y4 8 ) Y7 )  ( <= ( + Y7 5 ) Y4 )  )
( or ( <= ( + X4 80 ) X8 )  ( <= ( + X8 30 ) X4 )  ( <= ( + Y4 8 ) Y8 )  ( <= ( + Y8 86 ) Y4 )  )
( or ( <= ( + X4 80 ) X9 )  ( <= ( + X9 59 ) X4 )  ( <= ( + Y4 8 ) Y9 )  ( <= ( + Y9 79 ) Y4 )  )
( or ( <= ( + X4 80 ) X10 )  ( <= ( + X10 35 ) X4 )  ( <= ( + Y4 8 ) Y10 )  ( <= ( + Y10 41 ) Y4 )  )
( or ( <= ( + X4 80 ) X11 )  ( <= ( + X11 12 ) X4 )  ( <= ( + Y4 8 ) Y11 )  ( <= ( + Y11 65 ) Y4 )  )
( or ( <= ( + X5 58 ) X6 )  ( <= ( + X6 84 ) X5 )  ( <= ( + Y5 60 ) Y6 )  ( <= ( + Y6 87 ) Y5 )  )
( or ( <= ( + X5 58 ) X7 )  ( <= ( + X7 12 ) X5 )  ( <= ( + Y5 60 ) Y7 )  ( <= ( + Y7 5 ) Y5 )  )
( or ( <= ( + X5 58 ) X8 )  ( <= ( + X8 30 ) X5 )  ( <= ( + Y5 60 ) Y8 )  ( <= ( + Y8 86 ) Y5 )  )
( or ( <= ( + X5 58 ) X9 )  ( <= ( + X9 59 ) X5 )  ( <= ( + Y5 60 ) Y9 )  ( <= ( + Y9 79 ) Y5 )  )
( or ( <= ( + X5 58 ) X10 )  ( <= ( + X10 35 ) X5 )  ( <= ( + Y5 60 ) Y10 )  ( <= ( + Y10 41 ) Y5 )  )
( or ( <= ( + X5 58 ) X11 )  ( <= ( + X11 12 ) X5 )  ( <= ( + Y5 60 ) Y11 )  ( <= ( + Y11 65 ) Y5 )  )
( or ( <= ( + X6 84 ) X7 )  ( <= ( + X7 12 ) X6 )  ( <= ( + Y6 87 ) Y7 )  ( <= ( + Y7 5 ) Y6 )  )
( or ( <= ( + X6 84 ) X8 )  ( <= ( + X8 30 ) X6 )  ( <= ( + Y6 87 ) Y8 )  ( <= ( + Y8 86 ) Y6 )  )
( or ( <= ( + X6 84 ) X9 )  ( <= ( + X9 59 ) X6 )  ( <= ( + Y6 87 ) Y9 )  ( <= ( + Y9 79 ) Y6 )  )
( or ( <= ( + X6 84 ) X10 )  ( <= ( + X10 35 ) X6 )  ( <= ( + Y6 87 ) Y10 )  ( <= ( + Y10 41 ) Y6 )  )
( or ( <= ( + X6 84 ) X11 )  ( <= ( + X11 12 ) X6 )  ( <= ( + Y6 87 ) Y11 )  ( <= ( + Y11 65 ) Y6 )  )
( or ( <= ( + X7 12 ) X8 )  ( <= ( + X8 30 ) X7 )  ( <= ( + Y7 5 ) Y8 )  ( <= ( + Y8 86 ) Y7 )  )
( or ( <= ( + X7 12 ) X9 )  ( <= ( + X9 59 ) X7 )  ( <= ( + Y7 5 ) Y9 )  ( <= ( + Y9 79 ) Y7 )  )
( or ( <= ( + X7 12 ) X10 )  ( <= ( + X10 35 ) X7 )  ( <= ( + Y7 5 ) Y10 )  ( <= ( + Y10 41 ) Y7 )  )
( or ( <= ( + X7 12 ) X11 )  ( <= ( + X11 12 ) X7 )  ( <= ( + Y7 5 ) Y11 )  ( <= ( + Y11 65 ) Y7 )  )
( or ( <= ( + X8 30 ) X9 )  ( <= ( + X9 59 ) X8 )  ( <= ( + Y8 86 ) Y9 )  ( <= ( + Y9 79 ) Y8 )  )
( or ( <= ( + X8 30 ) X10 )  ( <= ( + X10 35 ) X8 )  ( <= ( + Y8 86 ) Y10 )  ( <= ( + Y10 41 ) Y8 )  )
( or ( <= ( + X8 30 ) X11 )  ( <= ( + X11 12 ) X8 )  ( <= ( + Y8 86 ) Y11 )  ( <= ( + Y11 65 ) Y8 )  )
( or ( <= ( + X9 59 ) X10 )  ( <= ( + X10 35 ) X9 )  ( <= ( + Y9 79 ) Y10 )  ( <= ( + Y10 41 ) Y9 )  )
( or ( <= ( + X9 59 ) X11 )  ( <= ( + X11 12 ) X9 )  ( <= ( + Y9 79 ) Y11 )  ( <= ( + Y11 65 ) Y9 )  )
( or ( <= ( + X10 35 ) X11 )  ( <= ( + X11 12 ) X10 )  ( <= ( + Y10 41 ) Y11 )  ( <= ( + Y11 65 ) Y10 )  )
( >= X0 0)
( <= ( + X0 81) Z)
( >= Y0 0)
( <= ( + Y0 28 ) 173)
( >= X1 0)
( <= ( + X1 70) Z)
( >= Y1 0)
( <= ( + Y1 57 ) 173)
( >= X2 0)
( <= ( + X2 74) Z)
( >= Y2 0)
( <= ( + Y2 39 ) 173)
( >= X3 0)
( <= ( + X3 88) Z)
( >= Y3 0)
( <= ( + Y3 64 ) 173)
( >= X4 0)
( <= ( + X4 80) Z)
( >= Y4 0)
( <= ( + Y4 8 ) 173)
( >= X5 0)
( <= ( + X5 58) Z)
( >= Y5 0)
( <= ( + Y5 60 ) 173)
( >= X6 0)
( <= ( + X6 84) Z)
( >= Y6 0)
( <= ( + Y6 87 ) 173)
( >= X7 0)
( <= ( + X7 12) Z)
( >= Y7 0)
( <= ( + Y7 5 ) 173)
( >= X8 0)
( <= ( + X8 30) Z)
( >= Y8 0)
( <= ( + Y8 86 ) 173)
( >= X9 0)
( <= ( + X9 59) Z)
( >= Y9 0)
( <= ( + Y9 79 ) 173)
( >= X10 0)
( <= ( + X10 35) Z)
( >= Y10 0)
( <= ( + Y10 41 ) 173)
( >= X11 0)
( <= ( + X11 12) Z)
( >= Y11 0)
( <= ( + Y11 65 ) 173)
) )
(minimize Z)
(check-sat)
